100
1000
200
200
200
199
199
199
199
199
198
198
198
198
197
195
193
193
193
193
192
188
187
186
186
186
185
185
185
184
184
183
183
182
181
180
180
180
179
179
178
178
178
178
178
178
177
177
176
176
176
176
175
173
173
173
173
172
172
172
172
170
169
169
169
168
168
168
168
167
165
165
165
164
163
163
162
162
162
162
161
160
160
160
159
159
159
158
157
157
157
155
155
154
154
154
153
152
152
152
151
150
